Route #1: 34 138 25 155 22 30 74 79 84 33 48 72
Route #2: 49 14 120 26 128 142 62 97 87 65 103 16
Route #3: 38 122 69 99 93 36 68 20 75 118 147 15
Route #4: 143 32 42 3 106 73 135 21 121 54 110 41
Route #5: 131 133 50 154 98 123 53 144 85 140 31 23
Route #6: 17 67 4 35 6 115 55 95 105 152 56 61
Route #7: 37 116 19 46 145 127 104 130 124 44 27 101
Route #8: 59 96 102 111 132 86 94 66 28 7 137 92
Route #9: 71 149 8 150 156 24 43 141 64 63 13 148
Route #10: 70 139 125 78 146 80 40 108 9 117 1 126
Route #11: 47 5 153 76 136 112 89 81 119 2 57 88
Route #12: 151 113 82 11 77 45 83 90 51 100 91 129
Route #13: 12 60 109 114 29 58 39 10 134 52 107 18
Cost 16876
